p cnf 20 30
1 2 3 4 5 0
-1 -2 -3 -4 -5 0
6 7 8 9 10 0
-6 -7 -8 -9 -10 0
11 12 13 14 15 0
-11 -12 -13 -14 -15 0
16 17 18 19 20 0
-16 -17 -18 -19 -20 0
1 -2 3 -4 5 0
-1 2 -3 4 -5 0
6 -7 8 -9 10 0
-6 7 -8 9 -10 0
11 -12 13 -14 15 0
-11 12 -13 14 -15 0
16 -17 18 -19 20 0
-16 17 -18 19 -20 0
1 1 1 1 1 0
-1 -1 -1 -1 -1 0
2 -2 2 -2 2 0
-2 2 -2 2 -2 0
3 3 -3 -3 3 0
-3 -3 3 3 -3 0
4 4 4 -4 -4 0
-4 -4 -4 4 4 0
5 5 5 5 -5 0
-5 -5 -5 -5 5 0
10 -10 10 -10 10 0
-10 10 -10 10 -10 0
15 15 -15 0
-15 -15 15 0